Route #1: 77 23 44 26 11 64 40 53
Route #2: 6 60 66 16 18 68 10 25 42
Route #3: 41 14 36 59 35 55 33 61 50
Route #4: 39 48 13 4 19 28 74 9
Route #5: 62 54 20 3 31 73 76
Route #6: 7 32 45 46 34 12 15
Route #7: 8 71 22 51 57 29 37 75
Route #8: 49 63 5 30 70 65 47
Route #9: 2 27 56 69 67 43 38
Route #10: 17 72 58 21 52 24 1
Cost 1262